<?xml version = "1.0" standalone="yes"?>
<!-- This file has been generated by DOcplex version 2.23.222  -->
<CPLEXSolution version="1.0">
 <header
   problemName="CVRP"
   objectiveValue="16307.4"
  />
 <variables>
  <variable name="x_0_1" index="0" value="1.00000"/>
  <variable name="x_0_2" index="1" value="1.00000"/>
  <variable name="x_0_6" index="5" value="1.00000"/>
  <variable name="x_0_8" index="7" value="1.00000"/>
  <variable name="x_0_9" index="8" value="1.00000"/>
  <variable name="x_0_11" index="10" value="1.00000"/>
  <variable name="x_0_12" index="11" value="1.00000"/>
  <variable name="x_0_13" index="12" value="1.00000"/>
  <variable name="x_0_14" index="13" value="1.00000"/>
  <variable name="x_0_15" index="14" value="1.00000"/>
  <variable name="x_0_16" index="15" value="1.00000"/>
  <variable name="x_1_0" index="17" value="1.00000"/>
  <variable name="x_2_0" index="34" value="1.00000"/>
  <variable name="x_3_0" index="51" value="1.00000"/>
  <variable name="x_4_0" index="68" value="1.00000"/>
  <variable name="x_5_3" index="88" value="1.00000"/>
  <variable name="x_6_7" index="108" value="1.00000"/>
  <variable name="x_7_0" index="119" value="1.00000"/>
  <variable name="x_8_10" index="145" value="1.00000"/>
  <variable name="x_9_5" index="158" value="1.00000"/>
  <variable name="x_10_0" index="170" value="1.00000"/>
  <variable name="x_11_4" index="191" value="1.00000"/>
  <variable name="x_12_0" index="204" value="1.00000"/>
  <variable name="x_13_0" index="221" value="1.00000"/>
  <variable name="x_14_17" index="254" value="1.00000"/>
  <variable name="x_15_0" index="255" value="1.00000"/>
  <variable name="x_16_0" index="272" value="1.00000"/>
  <variable name="x_17_0" index="289" value="1.00000"/>
  <variable name="u_1" index="306" value="40.00000"/>
  <variable name="u_2" index="307" value="31.00000"/>
  <variable name="u_3" index="308" value="51.00000"/>
  <variable name="u_4" index="309" value="51.00000"/>
  <variable name="u_5" index="310" value="21.00000"/>
  <variable name="u_6" index="311" value="26.00000"/>
  <variable name="u_7" index="312" value="51.00000"/>
  <variable name="u_8" index="313" value="35.00000"/>
  <variable name="u_9" index="314" value="1.00000"/>
  <variable name="u_10" index="315" value="51.00000"/>
  <variable name="u_11" index="316" value="19.00000"/>
  <variable name="u_12" index="317" value="47.00000"/>
  <variable name="u_13" index="318" value="31.00000"/>
  <variable name="u_14" index="319" value="24.00000"/>
  <variable name="u_15" index="320" value="42.00000"/>
  <variable name="u_16" index="321" value="31.00000"/>
  <variable name="u_17" index="322" value="38.00000"/>
 </variables>
</CPLEXSolution>
